
  22    4
  10   10   10   10

   0   0   0   0   0   4 2 3 4 6 
   9  10  10  10  10   4 11 9 7 5 
  10  10  10  10  10   5 21 14 13 12 9 
   8  10  10  10  10   4 21 13 12 9 
   2  10  10  10  10   3 13 10 8 
   5  10  10  10  10   2 13 8 
   5  10  10  10  10   7 21 20 19 18 14 13 12 
   9  10  10  10  10   6 21 20 19 18 17 12 
   8  10  10  10  10   2 15 10 
  10  10  10  10  10   4 20 19 18 17 
  10  10  10  10  10   3 17 16 13 
   7  10  10  10  10   2 16 15 
   7  10  10  10  10   1 15 
   1  10  10  10  10   1 16 
   6  10  10  10  10   1 22
   2  10  10  10  10   1 22
   2  10  10  10  10   1 22
   4  10  10  10  10   1 22
   8  10  10  10  10   1 22
   4  10  10  10  10   1 22
   9  10  10  10  10   1 22
   0   0   0   0   0   0 
